SPARKNaCl/why3-cvc5/sparknacl-utils.adb_86_14_contract_case6_1.smt2
;; produced by cvc5.drv ;;
(set-logic ALL)
(set-info :smt-lib-version 2.6)
;;; generated by SMT-LIB2 driver
;;; SMT-LIB2 driver: bit-vectors, common part
;;; SMT-LIB2: integer arithmetic
;; "pow2"
(declare-fun pow2 (Int) Int)

(declare-const two_power_size_minus_one Int)

;; "two_power_size_minus_one_val"
(assert (= two_power_size_minus_one (pow2 (- 32 1))))

;; "min"
(define-fun min ((x Int) (y Int)) Int
  (ite (<= x y) x y))

;; "max"
(define-fun max ((x Int) (y Int)) Int
  (ite (<= x y) y x))

;; "Min_r"
(assert (forall ((x Int) (y Int)) (=> (<= y x) (= (min x y) y))))

;; "Max_l"
(assert (forall ((x Int) (y Int)) (=> (<= y x) (= (max x y) x))))

;; "Min_comm"
(assert (forall ((x Int) (y Int)) (= (min x y) (min y x))))

;; "Max_comm"
(assert (forall ((x Int) (y Int)) (= (max x y) (max y x))))

;; "Min_assoc"
(assert
  (forall ((x Int) (y Int) (z Int)) (= (min (min x y) z) (min x (min y z)))))

;; "Max_assoc"
(assert
  (forall ((x Int) (y Int) (z Int)) (= (max (max x y) z) (max x (max y z)))))

;; "in_range"
(define-fun in_range ((x Int)) Bool
  (and (<= (- 2147483648) x) (<= x 2147483647)))

(declare-sort gf32_any_limb 0)

;; "gf32_any_limb'int"
(declare-fun gf32_any_limbqtint (gf32_any_limb) Int)

;; "gf32_any_limb'axiom"
(assert
  (forall ((i gf32_any_limb))
    (and
      (<= (- 65536) (gf32_any_limbqtint i))
      (<= (gf32_any_limbqtint i) 132051011))))

;; "in_range"
(define-fun in_range1 ((x Int)) Bool
  (and (<= (- 65536) x) (<= x 132051011)))

;; "to_rep"
(define-fun to_rep ((x gf32_any_limb)) Int
  (gf32_any_limbqtint x))

;; "of_rep"
(declare-fun of_rep (Int) gf32_any_limb)

;; "inversion_axiom"
(assert
  (forall ((x gf32_any_limb))
    (! (= (of_rep (to_rep x)) x) :pattern ((to_rep x)) )))

;; "range_axiom"
(assert
  (forall ((x gf32_any_limb))
    (! (in_range1 (to_rep x)) :pattern ((to_rep x)) )))

;; "coerce_axiom"
(assert
  (forall ((x Int))
    (! (=> (in_range1 x) (= (to_rep (of_rep x)) x)) :pattern ((to_rep
                                                                (of_rep x))) )))

(declare-sort map1 0)

;; "has_bounds"
(declare-fun has_bounds (map1
  Int
  Int) Bool)

;; "get"
(declare-fun get (map1
  Int) gf32_any_limb)

;; "set"
(declare-fun set (map1
  Int
  gf32_any_limb) map1)

;; "set_eq"
(assert
  (forall ((a map1) (i Int) (v gf32_any_limb))
    (! (= (get (set a i v) i) v) :pattern ((set a i v)) )))

;; "set_neq"
(assert
  (forall ((a map1) (i Int) (v gf32_any_limb))
    (! (forall ((j Int))
         (! (=> (not (= i j)) (= (get (set a i v) j) (get a j))) :pattern (
         (get
           a
           j)) :pattern ((get (set a i v) j)) )) :pattern ((set a i v)) )))

;; "set_has_bounds"
(assert
  (forall ((a map1) (i Int) (f Int) (l Int) (v gf32_any_limb))
    (! (=>
         (and (<= f i) (<= i l))
         (=> (has_bounds a f l) (has_bounds (set a i v) f l))) :pattern (
    (has_bounds
      (set a i v)
      f
      l)) )))

;; "slice"
(declare-fun slice (map1
  Int
  Int) map1)

;; "slice_eq"
(assert
  (forall ((a map1) (f Int) (l Int))
    (! (=> (has_bounds a f l) (= (slice a f l) a)) :pattern ((slice a f l)
    (has_bounds a f l)) )))

;; "slice_slice"
(assert
  (forall ((a map1) (f1 Int) (l1 Int) (f2 Int) (l2 Int))
    (! (=>
         (and (<= f1 f2) (<= l2 l1))
         (= (slice (slice a f1 l1) f2 l2) (slice a f2 l2))) :pattern (
    (slice
      (slice a f1 l1)
      f2
      l2)) )))

;; "slice_def"
(assert
  (forall ((a map1) (f Int) (l Int))
    (! (forall ((i Int))
         (! (=> (and (<= f i) (<= i l)) (= (get (slice a f l) i) (get a i))) :pattern (
         (get
           (slice a f l)
           i)) :pattern ((get a i)) )) :pattern ((slice a f l)) )))

;; "slice_has_bounds"
(assert
  (forall ((a map1) (f Int) (l Int))
    (! (has_bounds (slice a f l) f l) :pattern ((has_bounds
                                                  (slice a f l)
                                                  f
                                                  l)) )))

;; "bool_eq"
(define-fun bool_eq ((a map1) (a__first Int) (a__last Int) (b map1) (b__first Int) (b__last Int)) Bool
  (ite (and
         (ite (<= a__first a__last)
           (and
             (<= b__first b__last)
             (= (- a__last a__first) (- b__last b__first)))
           (< b__last b__first))
         (forall ((temp___idx_181 Int))
           (=>
             (and (<= a__first temp___idx_181) (<= temp___idx_181 a__last))
             (= (to_rep (get a temp___idx_181)) (to_rep
                                                  (get
                                                    b
                                                    (+ (- b__first a__first) temp___idx_181)))))))
    true
    false))

;; "bool_eq_rev"
(assert
  (forall ((a map1) (b map1))
    (forall ((a__first Int) (a__last Int) (b__first Int) (b__last Int))
      (=>
        (= (bool_eq b b__first b__last a a__first a__last) true)
        (and
          (ite (<= a__first a__last)
            (and
              (<= b__first b__last)
              (= (- a__last a__first) (- b__last b__first)))
            (< b__last b__first))
          (forall ((temp___idx_181 Int))
            (=>
              (and (<= a__first temp___idx_181) (<= temp___idx_181 a__last))
              (= (to_rep (get a temp___idx_181)) (to_rep
                                                   (get
                                                     b
                                                     (+ (- b__first a__first) temp___idx_181)))))))))))

(declare-const swap Bool)

(declare-sort tinteger_32B 0)

;; "tinteger_32B'int"
(declare-fun tinteger_32Bqtint (tinteger_32B) Int)

;; "tinteger_32B'axiom"
(assert
  (forall ((i tinteger_32B))
    (and
      (<= (- 2147483648) (tinteger_32Bqtint i))
      (<= (tinteger_32Bqtint i) 2147483647))))

;; "in_range"
(define-fun in_range2 ((x Int)) Bool
  (and (<= (- 2147483648) x) (<= x 2147483647)))

;; "to_rep"
(define-fun to_rep1 ((x tinteger_32B)) Int
  (tinteger_32Bqtint x))

;; "of_rep"
(declare-fun of_rep1 (Int) tinteger_32B)

;; "inversion_axiom"
(assert
  (forall ((x tinteger_32B))
    (! (= (of_rep1 (to_rep1 x)) x) :pattern ((to_rep1 x)) )))

;; "range_axiom"
(assert
  (forall ((x tinteger_32B))
    (! (in_range2 (to_rep1 x)) :pattern ((to_rep1 x)) )))

;; "coerce_axiom"
(assert
  (forall ((x Int))
    (! (=> (in_range2 x) (= (to_rep1 (of_rep1 x)) x)) :pattern ((to_rep1
                                                                  (of_rep1 x))) )))

(declare-datatypes ((t 0))
  (((tqtmk (rec__first tinteger_32B)(rec__last tinteger_32B)))))

;; "mk"
(declare-fun mk (Int
  Int) t)

;; "mk_def"
(assert
  (forall ((f Int) (l Int))
    (! (=>
         (in_range2 f)
         (=>
           (in_range2 l)
           (and
             (= (to_rep1 (rec__first (mk f l))) f)
             (= (to_rep1 (rec__last (mk f l))) l)))) :pattern ((mk f l)) )))

(declare-datatypes ((us_t 0))
  (((us_tqtmk (elts map1)(rt t)))))

;; "of_array"
(define-fun of_array ((a map1) (f Int) (l Int)) us_t
  (us_tqtmk a (mk f l)))

;; Goal "def'vc"
;; File "sparknacl-utils.adb", line 81, characters 0-0
(assert
  (not
  (forall ((p map1) (q map1))
    (=>
      (has_bounds p 0 15)
      (=>
        (has_bounds q 0 15)
        (forall ((c (_ BitVec 32)))
          (=>
            (= c (bvmul #xFFFFFFFF ((_ int2bv 32) (ite swap 1 0))))
            (forall ((p1 map1) (q1 map1))
              (=>
                (exists ((i Int))
                  (and
                    (= i 0)
                    (ite (= (and (ite (<= 0 i) true false) (ite (<= i 15)
                                                             true
                                                             false)) true)
                      (exists ((o Int))
                        (and
                          (= (to_rep (get p i)) o)
                          (and
                            (in_range o)
                            (exists ((o1 Int))
                              (and
                                (= (to_rep (get q i)) o1)
                                (and
                                  (in_range o1)
                                  (exists ((param__p Int) (param__q Int))
                                    (and
                                      (and
                                        (and
                                          (=>
                                            (= c #xFFFFFFFF)
                                            (and
                                              (= param__p o1)
                                              (= param__q o)))
                                          (=>
                                            (= c #x00000000)
                                            (and
                                              (= param__p o)
                                              (= param__q o1))))
                                        (and
                                          (in_range param__p)
                                          (in_range param__q)))
                                      (and
                                        (in_range1 param__p)
                                        (exists ((o2 gf32_any_limb))
                                          (and
                                            (= (to_rep o2) param__p)
                                            (exists ((p2 map1))
                                              (and
                                                (= p2 (set p i o2))
                                                (and
                                                  (in_range1 param__q)
                                                  (exists ((o3 gf32_any_limb))
                                                    (and
                                                      (= (to_rep o3) param__q)
                                                      (exists ((q2 map1))
                                                        (and
                                                          (= q2 (set q i o3))
                                                          (and
                                                            (=>
                                                              (<= 0 i)
                                                              (and
                                                                (and
                                                                  (<= 0 0)
                                                                  (<= 0 15))
                                                                (and
                                                                  (<= 0 i)
                                                                  (<= i 15))))
                                                            (exists ((i1 Int))
                                                              (and
                                                                (ite (= 
                                                                  swap true)
                                                                  (and
                                                                    (= 
                                                                    (let ((temp___995qtunused 
                                                                    (of_array
                                                                    (slice
                                                                    q
                                                                    0
                                                                    i1)
                                                                    0
                                                                    i1)))
                                                                    (bool_eq
                                                                    (slice
                                                                    p1
                                                                    0
                                                                    i1)
                                                                    0
                                                                    i1
                                                                    (slice
                                                                    q
                                                                    0
                                                                    i1)
                                                                    0
                                                                    i1)) true)
                                                                    (= 
                                                                    (let ((temp___1003qtunused 
                                                                    (of_array
                                                                    (slice
                                                                    p
                                                                    0
                                                                    i1)
                                                                    0
                                                                    i1)))
                                                                    (bool_eq
                                                                    (slice
                                                                    q1
                                                                    0
                                                                    i1)
                                                                    0
                                                                    i1
                                                                    (slice
                                                                    p
                                                                    0
                                                                    i1)
                                                                    0
                                                                    i1)) true))
                                                                  (and
                                                                    (= 
                                                                    (let ((temp___1011qtunused 
                                                                    (of_array
                                                                    (slice
                                                                    p
                                                                    0
                                                                    i1)
                                                                    0
                                                                    i1)))
                                                                    (bool_eq
                                                                    (slice
                                                                    p1
                                                                    0
                                                                    i1)
                                                                    0
                                                                    i1
                                                                    (slice
                                                                    p
                                                                    0
                                                                    i1)
                                                                    0
                                                                    i1)) true)
                                                                    (= 
                                                                    (let ((temp___1019qtunused 
                                                                    (of_array
                                                                    (slice
                                                                    q
                                                                    0
                                                                    i1)
                                                                    0
                                                                    i1)))
                                                                    (bool_eq
                                                                    (slice
                                                                    q1
                                                                    0
                                                                    i1)
                                                                    0
                                                                    i1
                                                                    (slice
                                                                    q
                                                                    0
                                                                    i1)
                                                                    0
                                                                    i1)) true)))
                                                                (and
                                                                  (= (and 
                                                                  (ite 
                                                                    (and
                                                                    (and
                                                                    (and
                                                                    (has_bounds
                                                                    p1
                                                                    0
                                                                    15)
                                                                    (forall 
                                                                    ((temp___947 Int))
                                                                    (=>
                                                                    (and
                                                                    (<= 0 temp___947)
                                                                    (<= temp___947 15))
                                                                    (=>
                                                                    (or
                                                                    (< 15 temp___947)
                                                                    (or
                                                                    (< temp___947 0)
                                                                    (< i1 temp___947)))
                                                                    (= 
                                                                    (get
                                                                    p1
                                                                    temp___947) 
                                                                    (get
                                                                    p
                                                                    temp___947))))))
                                                                    (has_bounds
                                                                    q1
                                                                    0
                                                                    15))
                                                                    (forall 
                                                                    ((temp___950 Int))
                                                                    (=>
                                                                    (and
                                                                    (<= 0 temp___950)
                                                                    (<= temp___950 15))
                                                                    (=>
                                                                    (or
                                                                    (< 15 temp___950)
                                                                    (or
                                                                    (< temp___950 0)
                                                                    (< i1 temp___950)))
                                                                    (= 
                                                                    (get
                                                                    q1
                                                                    temp___950) 
                                                                    (get
                                                                    q
                                                                    temp___950))))))
                                                                    true
                                                                    false) 
                                                                  (ite 
                                                                    (and
                                                                    (<= 0 i1)
                                                                    (<= i1 15))
                                                                    true
                                                                    false)) true)
                                                                  (= i1 15)))))))))))))))))))))))
                      (and (= p1 p) (= q1 q)))))
                (=>
                  (= swap true)
                  (=>
                    (forall ((i Int))
                      (=>
                        (and (<= 0 i) (<= i 15))
                        (and
                          (<= 0 (to_rep (get q1 i)))
                          (<= (to_rep (get q1 i)) 65535))))
                    (forall ((i Int))
                      (=>
                        (and (<= 0 i) (<= i 15))
                        (<= (to_rep (get p i)) 65535))))))))))))))

(check-sat)
